Route #1: 120 75
Route #2: 52 44 97 14 49 24
Route #3: 38 96
Route #4: 10 32 67
Route #5: 18 45
Route #6: 78 124 2 34 6 70 59 28 13
Route #7: 5 33 113
Route #8: 101 20 58 80 65 47 94
Route #9: 76 110 73
Route #10: 86 111
Route #11: 61 83 122
Route #12: 74 92 87 114 11 19 9
Route #13: 48 57 100
Route #14: 4 107 41 7 77
Route #15: 69 98 72
Route #16: 93 26
Route #17: 60 90 102
Route #18: 84 53 39 8
Route #19: 37 12
Route #20: 51 105 89 88 115
Route #21: 35 103
Route #22: 112 99
Route #23: 95 29 104 71 119 64
Route #24: 123 42 81 16 43 106
Route #25: 17 15 50 116 66 23
Route #26: 21 91 54 121
Route #27: 31 3
Route #28: 109 25 68 22 40 118 63 36 55 117 62
Route #29: 108 27 1 46 79 30 85
Route #30: 82 56
Cost 55551.000000